NAME: instance_3475
TYPE: TSP
DIMENSION: 20
EDGE_WEIGHT_TYPE: EUC_2D
NODE_COORD_SECTION
0 51.91 25.19
1 87.29 59.11
2 83.89 91.38
3 39.81 0.73
4 1.90 41.18
5 40.39 95.65
6 51.10 44.48
7 62.67 49.27
8 61.96 55.86
9 26.00 24.35
10 95.82 62.10
11 71.48 59.92
12 12.97 35.89
13 10.75 20.63
14 69.61 60.13
15 31.88 58.99
16 40.42 94.00
17 77.26 99.34
18 23.06 53.04
19 64.42 66.31
EOF
